c File: flat175_3_0.col
c
c SOURCE: Joseph Culberson (joe@cs.ualberta.ca)
c DESCRIPTION: Quasi-random coloring problem
c              generated with flatness = 0
c                             probability = 0.041
c                             known coloring = 3
c                             random seed = 1002
c              Creation Date:  Wed Feb 24 10:54:45 1999
c Maximum degree = 8 Minimum degree = 0
c COLOR VERIFICATION: Using the permuted order
c under simple greedy yields the specified
c coloring number
c Color = 3 specified partitions = 3
c p edge 175 417
c cnf created by edge2cnf
p cnf 525 1951
-1 -2 0
-1 -3 0
-2 -3 0
1 2 3 0
-4 -5 0
-4 -6 0
-5 -6 0
4 5 6 0
-7 -8 0
-7 -9 0
-8 -9 0
7 8 9 0
-10 -11 0
-10 -12 0
-11 -12 0
10 11 12 0
-13 -14 0
-13 -15 0
-14 -15 0
13 14 15 0
-16 -17 0
-16 -18 0
-17 -18 0
16 17 18 0
-19 -20 0
-19 -21 0
-20 -21 0
19 20 21 0
-22 -23 0
-22 -24 0
-23 -24 0
22 23 24 0
-25 -26 0
-25 -27 0
-26 -27 0
25 26 27 0
-28 -29 0
-28 -30 0
-29 -30 0
28 29 30 0
-31 -32 0
-31 -33 0
-32 -33 0
31 32 33 0
-34 -35 0
-34 -36 0
-35 -36 0
34 35 36 0
-37 -38 0
-37 -39 0
-38 -39 0
37 38 39 0
-40 -41 0
-40 -42 0
-41 -42 0
40 41 42 0
-43 -44 0
-43 -45 0
-44 -45 0
43 44 45 0
-46 -47 0
-46 -48 0
-47 -48 0
46 47 48 0
-49 -50 0
-49 -51 0
-50 -51 0
49 50 51 0
-52 -53 0
-52 -54 0
-53 -54 0
52 53 54 0
-55 -56 0
-55 -57 0
-56 -57 0
55 56 57 0
-58 -59 0
-58 -60 0
-59 -60 0
58 59 60 0
-61 -62 0
-61 -63 0
-62 -63 0
61 62 63 0
-64 -65 0
-64 -66 0
-65 -66 0
64 65 66 0
-67 -68 0
-67 -69 0
-68 -69 0
67 68 69 0
-70 -71 0
-70 -72 0
-71 -72 0
70 71 72 0
-73 -74 0
-73 -75 0
-74 -75 0
73 74 75 0
-76 -77 0
-76 -78 0
-77 -78 0
76 77 78 0
-79 -80 0
-79 -81 0
-80 -81 0
79 80 81 0
-82 -83 0
-82 -84 0
-83 -84 0
82 83 84 0
-85 -86 0
-85 -87 0
-86 -87 0
85 86 87 0
-88 -89 0
-88 -90 0
-89 -90 0
88 89 90 0
-91 -92 0
-91 -93 0
-92 -93 0
91 92 93 0
-94 -95 0
-94 -96 0
-95 -96 0
94 95 96 0
-97 -98 0
-97 -99 0
-98 -99 0
97 98 99 0
-100 -101 0
-100 -102 0
-101 -102 0
100 101 102 0
-103 -104 0
-103 -105 0
-104 -105 0
103 104 105 0
-106 -107 0
-106 -108 0
-107 -108 0
106 107 108 0
-109 -110 0
-109 -111 0
-110 -111 0
109 110 111 0
-112 -113 0
-112 -114 0
-113 -114 0
112 113 114 0
-115 -116 0
-115 -117 0
-116 -117 0
115 116 117 0
-118 -119 0
-118 -120 0
-119 -120 0
118 119 120 0
-121 -122 0
-121 -123 0
-122 -123 0
121 122 123 0
-124 -125 0
-124 -126 0
-125 -126 0
124 125 126 0
-127 -128 0
-127 -129 0
-128 -129 0
127 128 129 0
-130 -131 0
-130 -132 0
-131 -132 0
130 131 132 0
-133 -134 0
-133 -135 0
-134 -135 0
133 134 135 0
-136 -137 0
-136 -138 0
-137 -138 0
136 137 138 0
-139 -140 0
-139 -141 0
-140 -141 0
139 140 141 0
-142 -143 0
-142 -144 0
-143 -144 0
142 143 144 0
-145 -146 0
-145 -147 0
-146 -147 0
145 146 147 0
-148 -149 0
-148 -150 0
-149 -150 0
148 149 150 0
-151 -152 0
-151 -153 0
-152 -153 0
151 152 153 0
-154 -155 0
-154 -156 0
-155 -156 0
154 155 156 0
-157 -158 0
-157 -159 0
-158 -159 0
157 158 159 0
-160 -161 0
-160 -162 0
-161 -162 0
160 161 162 0
-163 -164 0
-163 -165 0
-164 -165 0
163 164 165 0
-166 -167 0
-166 -168 0
-167 -168 0
166 167 168 0
-169 -170 0
-169 -171 0
-170 -171 0
169 170 171 0
-172 -173 0
-172 -174 0
-173 -174 0
172 173 174 0
-175 -176 0
-175 -177 0
-176 -177 0
175 176 177 0
-178 -179 0
-178 -180 0
-179 -180 0
178 179 180 0
-181 -182 0
-181 -183 0
-182 -183 0
181 182 183 0
-184 -185 0
-184 -186 0
-185 -186 0
184 185 186 0
-187 -188 0
-187 -189 0
-188 -189 0
187 188 189 0
-190 -191 0
-190 -192 0
-191 -192 0
190 191 192 0
-193 -194 0
-193 -195 0
-194 -195 0
193 194 195 0
-196 -197 0
-196 -198 0
-197 -198 0
196 197 198 0
-199 -200 0
-199 -201 0
-200 -201 0
199 200 201 0
-202 -203 0
-202 -204 0
-203 -204 0
202 203 204 0
-205 -206 0
-205 -207 0
-206 -207 0
205 206 207 0
-208 -209 0
-208 -210 0
-209 -210 0
208 209 210 0
-211 -212 0
-211 -213 0
-212 -213 0
211 212 213 0
-214 -215 0
-214 -216 0
-215 -216 0
214 215 216 0
-217 -218 0
-217 -219 0
-218 -219 0
217 218 219 0
-220 -221 0
-220 -222 0
-221 -222 0
220 221 222 0
-223 -224 0
-223 -225 0
-224 -225 0
223 224 225 0
-226 -227 0
-226 -228 0
-227 -228 0
226 227 228 0
-229 -230 0
-229 -231 0
-230 -231 0
229 230 231 0
-232 -233 0
-232 -234 0
-233 -234 0
232 233 234 0
-235 -236 0
-235 -237 0
-236 -237 0
235 236 237 0
-238 -239 0
-238 -240 0
-239 -240 0
238 239 240 0
-241 -242 0
-241 -243 0
-242 -243 0
241 242 243 0
-244 -245 0
-244 -246 0
-245 -246 0
244 245 246 0
-247 -248 0
-247 -249 0
-248 -249 0
247 248 249 0
-250 -251 0
-250 -252 0
-251 -252 0
250 251 252 0
-253 -254 0
-253 -255 0
-254 -255 0
253 254 255 0
-256 -257 0
-256 -258 0
-257 -258 0
256 257 258 0
-259 -260 0
-259 -261 0
-260 -261 0
259 260 261 0
-262 -263 0
-262 -264 0
-263 -264 0
262 263 264 0
-265 -266 0
-265 -267 0
-266 -267 0
265 266 267 0
-268 -269 0
-268 -270 0
-269 -270 0
268 269 270 0
-271 -272 0
-271 -273 0
-272 -273 0
271 272 273 0
-274 -275 0
-274 -276 0
-275 -276 0
274 275 276 0
-277 -278 0
-277 -279 0
-278 -279 0
277 278 279 0
-280 -281 0
-280 -282 0
-281 -282 0
280 281 282 0
-283 -284 0
-283 -285 0
-284 -285 0
283 284 285 0
-286 -287 0
-286 -288 0
-287 -288 0
286 287 288 0
-289 -290 0
-289 -291 0
-290 -291 0
289 290 291 0
-292 -293 0
-292 -294 0
-293 -294 0
292 293 294 0
-295 -296 0
-295 -297 0
-296 -297 0
295 296 297 0
-298 -299 0
-298 -300 0
-299 -300 0
298 299 300 0
-301 -302 0
-301 -303 0
-302 -303 0
301 302 303 0
-304 -305 0
-304 -306 0
-305 -306 0
304 305 306 0
-307 -308 0
-307 -309 0
-308 -309 0
307 308 309 0
-310 -311 0
-310 -312 0
-311 -312 0
310 311 312 0
-313 -314 0
-313 -315 0
-314 -315 0
313 314 315 0
-316 -317 0
-316 -318 0
-317 -318 0
316 317 318 0
-319 -320 0
-319 -321 0
-320 -321 0
319 320 321 0
-322 -323 0
-322 -324 0
-323 -324 0
322 323 324 0
-325 -326 0
-325 -327 0
-326 -327 0
325 326 327 0
-328 -329 0
-328 -330 0
-329 -330 0
328 329 330 0
-331 -332 0
-331 -333 0
-332 -333 0
331 332 333 0
-334 -335 0
-334 -336 0
-335 -336 0
334 335 336 0
-337 -338 0
-337 -339 0
-338 -339 0
337 338 339 0
-340 -341 0
-340 -342 0
-341 -342 0
340 341 342 0
-343 -344 0
-343 -345 0
-344 -345 0
343 344 345 0
-346 -347 0
-346 -348 0
-347 -348 0
346 347 348 0
-349 -350 0
-349 -351 0
-350 -351 0
349 350 351 0
-352 -353 0
-352 -354 0
-353 -354 0
352 353 354 0
-355 -356 0
-355 -357 0
-356 -357 0
355 356 357 0
-358 -359 0
-358 -360 0
-359 -360 0
358 359 360 0
-361 -362 0
-361 -363 0
-362 -363 0
361 362 363 0
-364 -365 0
-364 -366 0
-365 -366 0
364 365 366 0
-367 -368 0
-367 -369 0
-368 -369 0
367 368 369 0
-370 -371 0
-370 -372 0
-371 -372 0
370 371 372 0
-373 -374 0
-373 -375 0
-374 -375 0
373 374 375 0
-376 -377 0
-376 -378 0
-377 -378 0
376 377 378 0
-379 -380 0
-379 -381 0
-380 -381 0
379 380 381 0
-382 -383 0
-382 -384 0
-383 -384 0
382 383 384 0
-385 -386 0
-385 -387 0
-386 -387 0
385 386 387 0
-388 -389 0
-388 -390 0
-389 -390 0
388 389 390 0
-391 -392 0
-391 -393 0
-392 -393 0
391 392 393 0
-394 -395 0
-394 -396 0
-395 -396 0
394 395 396 0
-397 -398 0
-397 -399 0
-398 -399 0
397 398 399 0
-400 -401 0
-400 -402 0
-401 -402 0
400 401 402 0
-403 -404 0
-403 -405 0
-404 -405 0
403 404 405 0
-406 -407 0
-406 -408 0
-407 -408 0
406 407 408 0
-409 -410 0
-409 -411 0
-410 -411 0
409 410 411 0
-412 -413 0
-412 -414 0
-413 -414 0
412 413 414 0
-415 -416 0
-415 -417 0
-416 -417 0
415 416 417 0
-418 -419 0
-418 -420 0
-419 -420 0
418 419 420 0
-421 -422 0
-421 -423 0
-422 -423 0
421 422 423 0
-424 -425 0
-424 -426 0
-425 -426 0
424 425 426 0
-427 -428 0
-427 -429 0
-428 -429 0
427 428 429 0
-430 -431 0
-430 -432 0
-431 -432 0
430 431 432 0
-433 -434 0
-433 -435 0
-434 -435 0
433 434 435 0
-436 -437 0
-436 -438 0
-437 -438 0
436 437 438 0
-439 -440 0
-439 -441 0
-440 -441 0
439 440 441 0
-442 -443 0
-442 -444 0
-443 -444 0
442 443 444 0
-445 -446 0
-445 -447 0
-446 -447 0
445 446 447 0
-448 -449 0
-448 -450 0
-449 -450 0
448 449 450 0
-451 -452 0
-451 -453 0
-452 -453 0
451 452 453 0
-454 -455 0
-454 -456 0
-455 -456 0
454 455 456 0
-457 -458 0
-457 -459 0
-458 -459 0
457 458 459 0
-460 -461 0
-460 -462 0
-461 -462 0
460 461 462 0
-463 -464 0
-463 -465 0
-464 -465 0
463 464 465 0
-466 -467 0
-466 -468 0
-467 -468 0
466 467 468 0
-469 -470 0
-469 -471 0
-470 -471 0
469 470 471 0
-472 -473 0
-472 -474 0
-473 -474 0
472 473 474 0
-475 -476 0
-475 -477 0
-476 -477 0
475 476 477 0
-478 -479 0
-478 -480 0
-479 -480 0
478 479 480 0
-481 -482 0
-481 -483 0
-482 -483 0
481 482 483 0
-484 -485 0
-484 -486 0
-485 -486 0
484 485 486 0
-487 -488 0
-487 -489 0
-488 -489 0
487 488 489 0
-490 -491 0
-490 -492 0
-491 -492 0
490 491 492 0
-493 -494 0
-493 -495 0
-494 -495 0
493 494 495 0
-496 -497 0
-496 -498 0
-497 -498 0
496 497 498 0
-499 -500 0
-499 -501 0
-500 -501 0
499 500 501 0
-502 -503 0
-502 -504 0
-503 -504 0
502 503 504 0
-505 -506 0
-505 -507 0
-506 -507 0
505 506 507 0
-508 -509 0
-508 -510 0
-509 -510 0
508 509 510 0
-511 -512 0
-511 -513 0
-512 -513 0
511 512 513 0
-514 -515 0
-514 -516 0
-515 -516 0
514 515 516 0
-517 -518 0
-517 -519 0
-518 -519 0
517 518 519 0
-520 -521 0
-520 -522 0
-521 -522 0
520 521 522 0
-523 -524 0
-523 -525 0
-524 -525 0
523 524 525 0
-49 -1 0
-50 -2 0
-51 -3 0
-148 -1 0
-149 -2 0
-150 -3 0
-208 -1 0
-209 -2 0
-210 -3 0
-235 -1 0
-236 -2 0
-237 -3 0
-355 -1 0
-356 -2 0
-357 -3 0
-358 -1 0
-359 -2 0
-360 -3 0
-61 -4 0
-62 -5 0
-63 -6 0
-169 -4 0
-170 -5 0
-171 -6 0
-223 -4 0
-224 -5 0
-225 -6 0
-361 -4 0
-362 -5 0
-363 -6 0
-439 -4 0
-440 -5 0
-441 -6 0
-487 -4 0
-488 -5 0
-489 -6 0
-76 -7 0
-77 -8 0
-78 -9 0
-85 -7 0
-86 -8 0
-87 -9 0
-265 -7 0
-266 -8 0
-267 -9 0
-328 -7 0
-329 -8 0
-330 -9 0
-412 -7 0
-413 -8 0
-414 -9 0
-418 -7 0
-419 -8 0
-420 -9 0
-43 -10 0
-44 -11 0
-45 -12 0
-223 -10 0
-224 -11 0
-225 -12 0
-241 -10 0
-242 -11 0
-243 -12 0
-298 -10 0
-299 -11 0
-300 -12 0
-271 -13 0
-272 -14 0
-273 -15 0
-322 -13 0
-323 -14 0
-324 -15 0
-406 -13 0
-407 -14 0
-408 -15 0
-28 -16 0
-29 -17 0
-30 -18 0
-112 -16 0
-113 -17 0
-114 -18 0
-280 -16 0
-281 -17 0
-282 -18 0
-418 -16 0
-419 -17 0
-420 -18 0
-514 -16 0
-515 -17 0
-516 -18 0
-91 -19 0
-92 -20 0
-93 -21 0
-181 -19 0
-182 -20 0
-183 -21 0
-214 -19 0
-215 -20 0
-216 -21 0
-277 -19 0
-278 -20 0
-279 -21 0
-316 -19 0
-317 -20 0
-318 -21 0
-223 -22 0
-224 -23 0
-225 -24 0
-289 -22 0
-290 -23 0
-291 -24 0
-361 -22 0
-362 -23 0
-363 -24 0
-436 -22 0
-437 -23 0
-438 -24 0
-523 -22 0
-524 -23 0
-525 -24 0
-34 -25 0
-35 -26 0
-36 -27 0
-190 -25 0
-191 -26 0
-192 -27 0
-205 -25 0
-206 -26 0
-207 -27 0
-346 -25 0
-347 -26 0
-348 -27 0
-130 -28 0
-131 -29 0
-132 -30 0
-256 -28 0
-257 -29 0
-258 -30 0
-322 -28 0
-323 -29 0
-324 -30 0
-499 -28 0
-500 -29 0
-501 -30 0
-133 -31 0
-134 -32 0
-135 -33 0
-430 -31 0
-431 -32 0
-432 -33 0
-457 -31 0
-458 -32 0
-459 -33 0
-94 -37 0
-95 -38 0
-96 -39 0
-115 -37 0
-116 -38 0
-117 -39 0
-148 -37 0
-149 -38 0
-150 -39 0
-337 -37 0
-338 -38 0
-339 -39 0
-415 -37 0
-416 -38 0
-417 -39 0
-472 -37 0
-473 -38 0
-474 -39 0
-250 -40 0
-251 -41 0
-252 -42 0
-292 -40 0
-293 -41 0
-294 -42 0
-346 -40 0
-347 -41 0
-348 -42 0
-409 -40 0
-410 -41 0
-411 -42 0
-454 -40 0
-455 -41 0
-456 -42 0
-487 -40 0
-488 -41 0
-489 -42 0
-157 -43 0
-158 -44 0
-159 -45 0
-292 -43 0
-293 -44 0
-294 -45 0
-340 -43 0
-341 -44 0
-342 -45 0
-181 -46 0
-182 -47 0
-183 -48 0
-337 -46 0
-338 -47 0
-339 -48 0
-412 -46 0
-413 -47 0
-414 -48 0
-460 -46 0
-461 -47 0
-462 -48 0
-67 -49 0
-68 -50 0
-69 -51 0
-115 -49 0
-116 -50 0
-117 -51 0
-337 -49 0
-338 -50 0
-339 -51 0
-382 -49 0
-383 -50 0
-384 -51 0
-514 -49 0
-515 -50 0
-516 -51 0
-520 -49 0
-521 -50 0
-522 -51 0
-103 -52 0
-104 -53 0
-105 -54 0
-106 -52 0
-107 -53 0
-108 -54 0
-196 -52 0
-197 -53 0
-198 -54 0
-367 -52 0
-368 -53 0
-369 -54 0
-385 -52 0
-386 -53 0
-387 -54 0
-520 -52 0
-521 -53 0
-522 -54 0
-70 -55 0
-71 -56 0
-72 -57 0
-271 -55 0
-272 -56 0
-273 -57 0
-316 -55 0
-317 -56 0
-318 -57 0
-415 -55 0
-416 -56 0
-417 -57 0
-439 -55 0
-440 -56 0
-441 -57 0
-265 -58 0
-266 -59 0
-267 -60 0
-481 -58 0
-482 -59 0
-483 -60 0
-487 -58 0
-488 -59 0
-489 -60 0
-352 -61 0
-353 -62 0
-354 -63 0
-400 -61 0
-401 -62 0
-402 -63 0
-445 -61 0
-446 -62 0
-447 -63 0
-82 -64 0
-83 -65 0
-84 -66 0
-124 -64 0
-125 -65 0
-126 -66 0
-247 -64 0
-248 -65 0
-249 -66 0
-418 -64 0
-419 -65 0
-420 -66 0
-469 -64 0
-470 -65 0
-471 -66 0
-481 -64 0
-482 -65 0
-483 -66 0
-235 -67 0
-236 -68 0
-237 -69 0
-352 -67 0
-353 -68 0
-354 -69 0
-355 -67 0
-356 -68 0
-357 -69 0
-499 -67 0
-500 -68 0
-501 -69 0
-103 -73 0
-104 -74 0
-105 -75 0
-115 -73 0
-116 -74 0
-117 -75 0
-124 -73 0
-125 -74 0
-126 -75 0
-160 -73 0
-161 -74 0
-162 -75 0
-334 -73 0
-335 -74 0
-336 -75 0
-382 -73 0
-383 -74 0
-384 -75 0
-418 -73 0
-419 -74 0
-420 -75 0
-268 -76 0
-269 -77 0
-270 -78 0
-346 -76 0
-347 -77 0
-348 -78 0
-367 -76 0
-368 -77 0
-369 -78 0
-445 -76 0
-446 -77 0
-447 -78 0
-469 -76 0
-470 -77 0
-471 -78 0
-82 -79 0
-83 -80 0
-84 -81 0
-160 -79 0
-161 -80 0
-162 -81 0
-421 -79 0
-422 -80 0
-423 -81 0
-514 -79 0
-515 -80 0
-516 -81 0
-94 -82 0
-95 -83 0
-96 -84 0
-184 -85 0
-185 -86 0
-186 -87 0
-196 -85 0
-197 -86 0
-198 -87 0
-502 -85 0
-503 -86 0
-504 -87 0
-97 -88 0
-98 -89 0
-99 -90 0
-166 -88 0
-167 -89 0
-168 -90 0
-394 -88 0
-395 -89 0
-396 -90 0
-496 -88 0
-497 -89 0
-498 -90 0
-523 -88 0
-524 -89 0
-525 -90 0
-97 -91 0
-98 -92 0
-99 -93 0
-181 -91 0
-182 -92 0
-183 -93 0
-202 -91 0
-203 -92 0
-204 -93 0
-301 -91 0
-302 -92 0
-303 -93 0
-388 -91 0
-389 -92 0
-390 -93 0
-523 -91 0
-524 -92 0
-525 -93 0
-484 -94 0
-485 -95 0
-486 -96 0
-508 -94 0
-509 -95 0
-510 -96 0
-163 -97 0
-164 -98 0
-165 -99 0
-364 -97 0
-365 -98 0
-366 -99 0
-445 -97 0
-446 -98 0
-447 -99 0
-514 -97 0
-515 -98 0
-516 -99 0
-256 -100 0
-257 -101 0
-258 -102 0
-361 -100 0
-362 -101 0
-363 -102 0
-475 -100 0
-476 -101 0
-477 -102 0
-172 -103 0
-173 -104 0
-174 -105 0
-247 -103 0
-248 -104 0
-249 -105 0
-268 -103 0
-269 -104 0
-270 -105 0
-457 -103 0
-458 -104 0
-459 -105 0
-391 -106 0
-392 -107 0
-393 -108 0
-508 -106 0
-509 -107 0
-510 -108 0
-112 -109 0
-113 -110 0
-114 -111 0
-310 -109 0
-311 -110 0
-312 -111 0
-334 -109 0
-335 -110 0
-336 -111 0
-382 -109 0
-383 -110 0
-384 -111 0
-418 -109 0
-419 -110 0
-420 -111 0
-421 -109 0
-422 -110 0
-423 -111 0
-307 -112 0
-308 -113 0
-309 -114 0
-379 -112 0
-380 -113 0
-381 -114 0
-406 -112 0
-407 -113 0
-408 -114 0
-469 -112 0
-470 -113 0
-471 -114 0
-475 -112 0
-476 -113 0
-477 -114 0
-154 -115 0
-155 -116 0
-156 -117 0
-178 -115 0
-179 -116 0
-180 -117 0
-268 -115 0
-269 -116 0
-270 -117 0
-466 -115 0
-467 -116 0
-468 -117 0
-127 -118 0
-128 -119 0
-129 -120 0
-388 -118 0
-389 -119 0
-390 -120 0
-517 -118 0
-518 -119 0
-519 -120 0
-127 -121 0
-128 -122 0
-129 -123 0
-256 -121 0
-257 -122 0
-258 -123 0
-289 -121 0
-290 -122 0
-291 -123 0
-412 -121 0
-413 -122 0
-414 -123 0
-508 -121 0
-509 -122 0
-510 -123 0
-514 -121 0
-515 -122 0
-516 -123 0
-187 -124 0
-188 -125 0
-189 -126 0
-193 -127 0
-194 -128 0
-195 -129 0
-256 -127 0
-257 -128 0
-258 -129 0
-385 -127 0
-386 -128 0
-387 -129 0
-253 -130 0
-254 -131 0
-255 -132 0
-286 -130 0
-287 -131 0
-288 -132 0
-331 -130 0
-332 -131 0
-333 -132 0
-355 -130 0
-356 -131 0
-357 -132 0
-391 -130 0
-392 -131 0
-393 -132 0
-265 -133 0
-266 -134 0
-267 -135 0
-271 -133 0
-272 -134 0
-273 -135 0
-409 -133 0
-410 -134 0
-411 -135 0
-196 -136 0
-197 -137 0
-198 -138 0
-364 -136 0
-365 -137 0
-366 -138 0
-385 -136 0
-386 -137 0
-387 -138 0
-448 -136 0
-449 -137 0
-450 -138 0
-163 -139 0
-164 -140 0
-165 -141 0
-181 -139 0
-182 -140 0
-183 -141 0
-349 -139 0
-350 -140 0
-351 -141 0
-157 -142 0
-158 -143 0
-159 -144 0
-412 -142 0
-413 -143 0
-414 -144 0
-418 -142 0
-419 -143 0
-420 -144 0
-463 -142 0
-464 -143 0
-465 -144 0
-484 -142 0
-485 -143 0
-486 -144 0
-313 -145 0
-314 -146 0
-315 -147 0
-439 -145 0
-440 -146 0
-441 -147 0
-466 -145 0
-467 -146 0
-468 -147 0
-259 -148 0
-260 -149 0
-261 -150 0
-391 -148 0
-392 -149 0
-393 -150 0
-397 -148 0
-398 -149 0
-399 -150 0
-193 -154 0
-194 -155 0
-195 -156 0
-463 -154 0
-464 -155 0
-465 -156 0
-229 -157 0
-230 -158 0
-231 -159 0
-334 -157 0
-335 -158 0
-336 -159 0
-502 -157 0
-503 -158 0
-504 -159 0
-295 -160 0
-296 -161 0
-297 -162 0
-340 -160 0
-341 -161 0
-342 -162 0
-403 -160 0
-404 -161 0
-405 -162 0
-478 -160 0
-479 -161 0
-480 -162 0
-277 -163 0
-278 -164 0
-279 -165 0
-427 -163 0
-428 -164 0
-429 -165 0
-502 -163 0
-503 -164 0
-504 -165 0
-511 -163 0
-512 -164 0
-513 -165 0
-199 -166 0
-200 -167 0
-201 -168 0
-301 -166 0
-302 -167 0
-303 -168 0
-358 -166 0
-359 -167 0
-360 -168 0
-223 -169 0
-224 -170 0
-225 -171 0
-373 -169 0
-374 -170 0
-375 -171 0
-190 -172 0
-191 -173 0
-192 -174 0
-202 -172 0
-203 -173 0
-204 -174 0
-286 -172 0
-287 -173 0
-288 -174 0
-331 -172 0
-332 -173 0
-333 -174 0
-490 -172 0
-491 -173 0
-492 -174 0
-313 -175 0
-314 -176 0
-315 -177 0
-331 -175 0
-332 -176 0
-333 -177 0
-343 -175 0
-344 -176 0
-345 -177 0
-442 -175 0
-443 -176 0
-444 -177 0
-229 -178 0
-230 -179 0
-231 -180 0
-349 -178 0
-350 -179 0
-351 -180 0
-382 -178 0
-383 -179 0
-384 -180 0
-328 -181 0
-329 -182 0
-330 -183 0
-334 -181 0
-335 -182 0
-336 -183 0
-472 -181 0
-473 -182 0
-474 -183 0
-256 -184 0
-257 -185 0
-258 -186 0
-229 -187 0
-230 -188 0
-231 -189 0
-247 -187 0
-248 -188 0
-249 -189 0
-259 -187 0
-260 -188 0
-261 -189 0
-337 -187 0
-338 -188 0
-339 -189 0
-481 -187 0
-482 -188 0
-483 -189 0
-259 -190 0
-260 -191 0
-261 -192 0
-352 -190 0
-353 -191 0
-354 -192 0
-430 -190 0
-431 -191 0
-432 -192 0
-469 -190 0
-470 -191 0
-471 -192 0
-511 -190 0
-512 -191 0
-513 -192 0
-322 -193 0
-323 -194 0
-324 -195 0
-379 -193 0
-380 -194 0
-381 -195 0
-460 -193 0
-461 -194 0
-462 -195 0
-232 -196 0
-233 -197 0
-234 -198 0
-298 -196 0
-299 -197 0
-300 -198 0
-415 -196 0
-416 -197 0
-417 -198 0
-325 -199 0
-326 -200 0
-327 -201 0
-520 -199 0
-521 -200 0
-522 -201 0
-241 -202 0
-242 -203 0
-243 -204 0
-397 -202 0
-398 -203 0
-399 -204 0
-208 -205 0
-209 -206 0
-210 -207 0
-424 -205 0
-425 -206 0
-426 -207 0
-505 -205 0
-506 -206 0
-507 -207 0
-247 -208 0
-248 -209 0
-249 -210 0
-472 -208 0
-473 -209 0
-474 -210 0
-496 -208 0
-497 -209 0
-498 -210 0
-217 -214 0
-218 -215 0
-219 -216 0
-403 -214 0
-404 -215 0
-405 -216 0
-334 -220 0
-335 -221 0
-336 -222 0
-448 -220 0
-449 -221 0
-450 -222 0
-259 -223 0
-260 -224 0
-261 -225 0
-445 -223 0
-446 -224 0
-447 -225 0
-451 -223 0
-452 -224 0
-453 -225 0
-265 -226 0
-266 -227 0
-267 -228 0
-340 -226 0
-341 -227 0
-342 -228 0
-373 -226 0
-374 -227 0
-375 -228 0
-484 -226 0
-485 -227 0
-486 -228 0
-313 -229 0
-314 -230 0
-315 -231 0
-304 -232 0
-305 -233 0
-306 -234 0
-442 -232 0
-443 -233 0
-444 -234 0
-475 -232 0
-476 -233 0
-477 -234 0
-511 -232 0
-512 -233 0
-513 -234 0
-523 -232 0
-524 -233 0
-525 -234 0
-349 -235 0
-350 -236 0
-351 -237 0
-409 -235 0
-410 -236 0
-411 -237 0
-505 -235 0
-506 -236 0
-507 -237 0
-271 -238 0
-272 -239 0
-273 -240 0
-286 -238 0
-287 -239 0
-288 -240 0
-376 -238 0
-377 -239 0
-378 -240 0
-388 -238 0
-389 -239 0
-390 -240 0
-454 -238 0
-455 -239 0
-456 -240 0
-373 -241 0
-374 -242 0
-375 -243 0
-427 -241 0
-428 -242 0
-429 -243 0
-481 -241 0
-482 -242 0
-483 -243 0
-427 -244 0
-428 -245 0
-429 -246 0
-478 -244 0
-479 -245 0
-480 -246 0
-484 -244 0
-485 -245 0
-486 -246 0
-523 -244 0
-524 -245 0
-525 -246 0
-412 -247 0
-413 -248 0
-414 -249 0
-415 -247 0
-416 -248 0
-417 -249 0
-466 -247 0
-467 -248 0
-468 -249 0
-274 -250 0
-275 -251 0
-276 -252 0
-301 -250 0
-302 -251 0
-303 -252 0
-328 -250 0
-329 -251 0
-330 -252 0
-355 -250 0
-356 -251 0
-357 -252 0
-451 -250 0
-452 -251 0
-453 -252 0
-271 -253 0
-272 -254 0
-273 -255 0
-274 -253 0
-275 -254 0
-276 -255 0
-493 -256 0
-494 -257 0
-495 -258 0
-502 -256 0
-503 -257 0
-504 -258 0
-337 -259 0
-338 -260 0
-339 -261 0
-463 -262 0
-464 -263 0
-465 -264 0
-469 -262 0
-470 -263 0
-471 -264 0
-268 -265 0
-269 -266 0
-270 -267 0
-316 -265 0
-317 -266 0
-318 -267 0
-283 -268 0
-284 -269 0
-285 -270 0
-361 -271 0
-362 -272 0
-363 -273 0
-496 -271 0
-497 -272 0
-498 -273 0
-295 -274 0
-296 -275 0
-297 -276 0
-382 -277 0
-383 -278 0
-384 -279 0
-397 -277 0
-398 -278 0
-399 -279 0
-424 -280 0
-425 -281 0
-426 -282 0
-427 -280 0
-428 -281 0
-429 -282 0
-433 -280 0
-434 -281 0
-435 -282 0
-376 -283 0
-377 -284 0
-378 -285 0
-379 -283 0
-380 -284 0
-381 -285 0
-418 -283 0
-419 -284 0
-420 -285 0
-322 -286 0
-323 -287 0
-324 -288 0
-292 -289 0
-293 -290 0
-294 -291 0
-346 -292 0
-347 -293 0
-348 -294 0
-454 -292 0
-455 -293 0
-456 -294 0
-505 -295 0
-506 -296 0
-507 -297 0
-514 -295 0
-515 -296 0
-516 -297 0
-517 -295 0
-518 -296 0
-519 -297 0
-328 -298 0
-329 -299 0
-330 -300 0
-484 -298 0
-485 -299 0
-486 -300 0
-319 -304 0
-320 -305 0
-321 -306 0
-502 -304 0
-503 -305 0
-504 -306 0
-520 -304 0
-521 -305 0
-522 -306 0
-463 -307 0
-464 -308 0
-465 -309 0
-319 -310 0
-320 -311 0
-321 -312 0
-352 -310 0
-353 -311 0
-354 -312 0
-340 -313 0
-341 -314 0
-342 -315 0
-355 -313 0
-356 -314 0
-357 -315 0
-433 -313 0
-434 -314 0
-435 -315 0
-409 -316 0
-410 -317 0
-411 -318 0
-490 -316 0
-491 -317 0
-492 -318 0
-331 -319 0
-332 -320 0
-333 -321 0
-397 -319 0
-398 -320 0
-399 -321 0
-511 -319 0
-512 -320 0
-513 -321 0
-352 -322 0
-353 -323 0
-354 -324 0
-364 -322 0
-365 -323 0
-366 -324 0
-403 -322 0
-404 -323 0
-405 -324 0
-496 -325 0
-497 -326 0
-498 -327 0
-400 -328 0
-401 -329 0
-402 -330 0
-430 -328 0
-431 -329 0
-432 -330 0
-448 -328 0
-449 -329 0
-450 -330 0
-457 -328 0
-458 -329 0
-459 -330 0
-337 -331 0
-338 -332 0
-339 -333 0
-490 -331 0
-491 -332 0
-492 -333 0
-364 -337 0
-365 -338 0
-366 -339 0
-376 -340 0
-377 -341 0
-378 -342 0
-379 -340 0
-380 -341 0
-381 -342 0
-367 -343 0
-368 -344 0
-369 -345 0
-418 -346 0
-419 -347 0
-420 -348 0
-370 -349 0
-371 -350 0
-372 -351 0
-427 -349 0
-428 -350 0
-429 -351 0
-472 -352 0
-473 -353 0
-474 -354 0
-451 -358 0
-452 -359 0
-453 -360 0
-394 -361 0
-395 -362 0
-396 -363 0
-493 -361 0
-494 -362 0
-495 -363 0
-424 -364 0
-425 -365 0
-426 -366 0
-403 -367 0
-404 -368 0
-405 -369 0
-505 -367 0
-506 -368 0
-507 -369 0
-397 -370 0
-398 -371 0
-399 -372 0
-433 -370 0
-434 -371 0
-435 -372 0
-439 -370 0
-440 -371 0
-441 -372 0
-454 -370 0
-455 -371 0
-456 -372 0
-517 -370 0
-518 -371 0
-519 -372 0
-511 -373 0
-512 -374 0
-513 -375 0
-388 -376 0
-389 -377 0
-390 -378 0
-520 -382 0
-521 -383 0
-522 -384 0
-403 -385 0
-404 -386 0
-405 -387 0
-514 -385 0
-515 -386 0
-516 -387 0
-523 -385 0
-524 -386 0
-525 -387 0
-478 -388 0
-479 -389 0
-480 -390 0
-523 -388 0
-524 -389 0
-525 -390 0
-421 -394 0
-422 -395 0
-423 -396 0
-451 -394 0
-452 -395 0
-453 -396 0
-499 -394 0
-500 -395 0
-501 -396 0
-508 -394 0
-509 -395 0
-510 -396 0
-406 -400 0
-407 -401 0
-408 -402 0
-502 -400 0
-503 -401 0
-504 -402 0
-517 -400 0
-518 -401 0
-519 -402 0
-472 -403 0
-473 -404 0
-474 -405 0
-505 -406 0
-506 -407 0
-507 -408 0
-427 -415 0
-428 -416 0
-429 -417 0
-445 -415 0
-446 -416 0
-447 -417 0
-463 -415 0
-464 -416 0
-465 -417 0
-430 -424 0
-431 -425 0
-432 -426 0
-442 -424 0
-443 -425 0
-444 -426 0
-502 -424 0
-503 -425 0
-504 -426 0
-460 -430 0
-461 -431 0
-462 -432 0
-493 -430 0
-494 -431 0
-495 -432 0
-514 -436 0
-515 -437 0
-516 -438 0
-445 -439 0
-446 -440 0
-447 -441 0
-481 -439 0
-482 -440 0
-483 -441 0
-508 -439 0
-509 -440 0
-510 -441 0
-496 -442 0
-497 -443 0
-498 -444 0
-505 -442 0
-506 -443 0
-507 -444 0
-466 -448 0
-467 -449 0
-468 -450 0
-511 -448 0
-512 -449 0
-513 -450 0
-523 -448 0
-524 -449 0
-525 -450 0
-475 -454 0
-476 -455 0
-477 -456 0
-484 -469 0
-485 -470 0
-486 -471 0
-502 -472 0
-503 -473 0
-504 -474 0
-520 -472 0
-521 -473 0
-522 -474 0
-517 -478 0
-518 -479 0
-519 -480 0
-505 -499 0
-506 -500 0
-507 -501 0
-520 -511 0
-521 -512 0
-522 -513 0
